data;
param n:=50;
param w:=1 -183 2 -136 3 -28 4 39 5 -148 6 140 7 -246 8 -29 9 -8 10 -92 11 219 12 77 13 -99 14 182 15 26 16 -266 17 126 18 -99 19 205 20 -13 21 190 22 82 23 -237 24 -229 25 100 26 -77 27 217 28 -193 29 186 30 -23 31 -263 32 123 33 -138 34 -270 35 140 36 57 37 106 38 216 39 73 40 -65 41 -70 42 -149 43 227 44 -163 45 145 46 209 47 19 48 140 49 71 50 -91;
